@SET PATH /rds/general/user/yl4619/home/projects/mlp_cc/ptwat/step3/final-training/model

&GLOBAL
  PROJECT ptwat-04
  PRINT_LEVEL LOW
  RUN_TYPE MD
&END GLOBAL

&FORCE_EVAL
  METHOD NNP
  &NNP
    NNP_INPUT_FILE_NAME ${PATH}/nnp-000/input.nn
    SCALE_FILE_NAME ${PATH}/nnp-000/scaling.data
    &MODEL
      WEIGHTS ${PATH}/nnp-000/weights
    &END MODEL
    &MODEL
      WEIGHTS ${PATH}/nnp-001/weights
    &END MODEL
    &MODEL
      WEIGHTS ${PATH}/nnp-002/weights
    &END MODEL
    &MODEL
      WEIGHTS ${PATH}/nnp-003/weights
    &END MODEL
    &MODEL
      WEIGHTS ${PATH}/nnp-004/weights
    &END MODEL
    &MODEL
      WEIGHTS ${PATH}/nnp-005/weights
    &END MODEL
    &MODEL
      WEIGHTS ${PATH}/nnp-006/weights
    &END MODEL
    &MODEL
      WEIGHTS ${PATH}/nnp-007/weights                                                                      
    &END MODEL                                                                                             
    &PRINT
      &ENERGIES SILENT                                                                                     
        &EACH
          MD 1
        &END EACH
      &END ENERGIES                                                                                        
    &END PRINT                                                                                             
  &END NNP 
  &SUBSYS
    &CELL
        ABC 14.568340245202947     19.625748711832625     35.941903953113489
    &END CELL

    &KIND  Pt
      BASIS_SET  TZV-GTH-LDA-q18-very-confined
      POTENTIAL  GTH-PBE-q18
    &END
    &KIND  Pts
      ELEMENT Pt
      BASIS_SET  TZV-GTH-LDA-q18-very-confined
      POTENTIAL  GTH-PBE-q18
    &END
    &KIND H
      BASIS_SET TZVP-GTH
      POTENTIAL GTH-PBE-q1
    &END KIND
    &KIND O
      BASIS_SET TZVP-GTH
      POTENTIAL GTH-PBE-q6
    &END KIND
    &KIND Na
      BASIS_SET TZVP-GTH
      POTENTIAL GTH-PBE-q9
    &END KIND
    &KIND Cl
      BASIS_SET TZVP-GTH
      POTENTIAL GTH-PBE-q7
    &END KIND
   &COORD
 Pt         0.0000000000        0.0000000000        0.0000000000
 Pt         4.8561134151        0.0000000000        0.0000000000
 Pt         9.7122370055        0.0000000000        0.0000000000
 Pt         2.4280567075        1.4018391937        0.0000000000
 Pt         7.2841701226        1.4018391937        0.0000000000
 Pt        12.1403344145        1.4018391937        0.0000000000
 Pt         0.0000000000        2.8036783874        0.0000000000
 Pt         4.8561134151        2.8036783874        0.0000000000
 Pt         9.7122370055        2.8036783874        0.0000000000
 Pt         2.4280567075        4.2055175811        0.0000000000
 Pt         7.2841701226        4.2055175811        0.0000000000
 Pt        12.1403344145        4.2055175811        0.0000000000
 Pt         0.0000000000        5.6073567748        0.0000000000
 Pt         4.8561134151        5.6073567748        0.0000000000
 Pt         9.7122370055        5.6073567748        0.0000000000
 Pt         2.4280567075        7.0091959685        0.0000000000
 Pt         7.2841701226        7.0091959685        0.0000000000
 Pt        12.1403344145        7.0091959685        0.0000000000
 Pt         0.0000000000        8.4110351622        0.0000000000
 Pt         4.8561134151        8.4110351622        0.0000000000
 Pt         9.7122370055        8.4110351622        0.0000000000
 Pt         2.4280567075        9.8128743559        0.0000000000
 Pt         7.2841701226        9.8128743559        0.0000000000
 Pt        12.1403344145        9.8128743559        0.0000000000
 Pt         0.0000000000       11.2147542410        0.0000000000
 Pt         4.8561134151       11.2147542410        0.0000000000
 Pt         9.7122370055       11.2147542410        0.0000000000
 Pt         2.4280567075       12.6165730890        0.0000000000
 Pt         7.2841701226       12.6165730890        0.0000000000
 Pt        12.1403344145       12.6165730890        0.0000000000
 Pt         0.0000000000       14.0183919370        0.0000000000
 Pt         4.8561134151       14.0183919370        0.0000000000
 Pt         9.7122370055       14.0183919370        0.0000000000
 Pt         2.4280567075       15.4202107850        0.0000000000
 Pt         7.2841701226       15.4202107850        0.0000000000
 Pt        12.1403344145       15.4202107850        0.0000000000
 Pt         0.0000000000       16.8220296330        0.0000000000
 Pt         4.8561134151       16.8220296330        0.0000000000
 Pt         9.7122370055       16.8220296330        0.0000000000
 Pt         2.4280567075       18.2239512268        0.0000000000
 Pt         7.2841701226       18.2239512268        0.0000000000
 Pt        12.1403344145       18.2239512268        0.0000000000
 Pt         1.6703470844        0.1175413033        2.3050811021
 Pt         6.5543955685       -0.0853702224        2.3673272774
 Pt        11.3331465234        0.0046968924        2.3672568876
 Pt         4.1196940402        1.5050950775        2.2898465073
 Pt         8.8972538739        1.4385615228        2.3873278262
 Pt        13.7582904165        1.4462456631        2.3672859535
 Pt         1.5873504961        2.9458555242        2.3625304405
 Pt         6.4814190880        2.7718030201        2.3990042312
 Pt        11.3433082889        2.7453152763        2.2590029138
 Pt         4.1221998930        4.3509776744        2.3126477689
 Pt         8.9430932746        4.2347022325        2.4817856916
 Pt        13.7228097309        4.2193638381        2.3790785060
 Pt         1.6322919613        5.6150596743        2.2944743911
 Pt         6.5261138190        5.6238483444        2.3975585233
 Pt        11.3572883376        5.5878773170        2.2663223093
 Pt         4.1016153945        7.1204102195        2.4494218612
 Pt         9.0985163398        7.0564133737        2.2591727012
 Pt        13.9336492335        6.9809847057        2.2790626291
 Pt         1.7139840578        8.5115956431        2.2378430557
 Pt         6.4516329397        8.3836329469        2.3054699498
 Pt        11.3915058495        8.4430930121        2.2942898165
 Pt         4.1294516130        9.8932668852        2.2976534165
 Pt         8.9613248849        9.8853567860        2.3912406092
 Pt        13.8922513414        9.8313012319        2.3150893668
 Pt         1.6669181356       11.3762861841        2.2977264869
 Pt         6.5490695596       11.2199952519        2.3110607836
 Pt        11.4385295582       11.1570746197        2.2885286893
 Pt         4.1004197163       12.7221250447        2.3359129890
 Pt         8.9729396663       12.6183299802        2.2310962020
 Pt        13.7983071980       12.6438851867        2.2711786817
 Pt         1.6767673956       14.1260681828        2.2859566487
 Pt         6.5522134752       13.9271271244        2.3446408593
 Pt        11.3715707329       14.1312536603        2.2945240932
 Pt         4.1647290449       15.4028003318        2.1528047068
 Pt         8.9507079268       15.4450473993        2.2678179620
 Pt        13.7621334153       15.4608772127        2.2356180728
 Pt         1.6000236102       16.9097686616        2.2199167443
 Pt         6.4918017975       16.8209089245        2.2554236481
 Pt        11.4508364362       16.9479084049        2.3154024837
 Pt         4.2423529845       18.2060668869        2.3337403503
 Pt         8.9846782322       18.2871692261        2.2921007681
 Pt       13.8196445924       18.2859033942        2.4042427835
  O         3.2720029973       10.7293120460        9.2371891479
  H         2.6753526658       11.0176081633        9.9966923334
  H         3.8280846805       10.0356414913        9.6913814191
  O         6.1340701138       17.7615616212       28.1167603208
  H         6.3702645278       17.6638822270       29.1172996633
  H         6.0304496796       16.8102188618       27.9035112608
  O        11.8486070153       12.9940642108       18.4980358626
  H        12.6465784360       12.4803724952       18.6665425786
  H        12.0689868250       14.5944931741       18.8370648189
  O         7.8714692591        3.6478594791       10.0291926766
  H         7.0208595324        3.8298821912        9.4469040532
  H         7.6188568891        4.0889663978       10.8349723351
  O         7.4136414250       13.1722419144        6.7091187796
  H         6.7818047510       13.2630899140        7.4075741373
  H         7.6583033593       12.2847444284        6.6471340701
  O         4.3253994460       16.0529507084       24.5437896200
  H         4.9850414116       15.7883408997       23.7872404503
  H         4.4797048932       17.0006229982       24.6842553840
  O         8.8528567639       10.2888969572       17.1713952895
  H         8.5449997767       10.8292820000       17.9598608075
  H         8.1803320933        9.5508444185       17.1659097697
  O         2.0212620971       18.9262424662       21.8433102719
  H         1.4111002996       19.4615030350       21.2858667514
  H         1.7370220328       19.1576606259       22.7576078944
  O         5.4536135899        5.2815135362       16.0736542529
  H         5.5536547978        4.5788585147       15.3614581620
  H         6.3842079019        5.6962437252       16.3966258668
  O         1.1296152451       19.9760947566        5.4743196606
  H         0.7257330781       19.8879651932        4.5086240102
  H         0.4274583246       20.4118616385        6.0340966937
  O        10.5026165133       12.8288800309        8.8677202381
  H         9.9778489420       13.6274812651        8.6993888897
  H        11.3741791098       13.2544253876        9.0645625251
  O         2.4894476017        7.3615518746       11.1421164589
  H         2.5583037087        6.3724131853       11.5693322815
  H         1.9389705747        7.7959171451       11.8403792612
  O         7.2045709711        2.2916962125       19.2395216056
  H         6.8921596214        1.6112610283       19.9369154678
  H         6.4124105680        2.8172967503       18.9171239381
  O         3.9154645127        1.3310882398        4.4927916929
  H         4.0507291321        0.3930687122        4.7933356019
  H         3.0505893187        1.6081764446        4.8416517252
  O        10.2567700302        5.0647040173       24.0223113859
  H        10.2354030499        4.4640539093       23.2495382389
  H        11.2317402414        5.3170887293       24.0916295266
  O         6.2033436100        2.6812210653        5.6948724300
  H         6.6302707168        3.6224575074        5.5335271627
  H         5.6598249648        2.4539940652        4.9246211353
  O        12.6626693995       10.6888756314       14.3798391859
  H        13.5753757648       10.3827101482       14.4641490636
  H        12.4692522534       11.3921323546       15.0497508388
  O         3.3964091485       18.0533732045       28.0860325349
  H         4.3731380459       18.1479742765       27.8823168534
  H         3.2674742255       17.1748106850       28.4733127787
  O         6.3593705838        9.7521109693        5.8919739012
  H         6.9195721369        9.9215716472        6.7640246639
  H         6.3578131740        8.7953855421        5.7875189386
  O        13.0382702932        2.7785634831       20.7884886025
  H        12.4548373493        3.3649469491       20.2469387178
  H        13.5237639322        3.4872580097       21.2915565069
  O         2.7255100328        5.8927892906        7.3305778289
  H         3.2181683246        5.6110347720        8.1314637967
  H         2.6305328542        5.0760664996        6.7890548187
  O         8.7114159055       10.3078544135       22.5167431513
  H         8.8666540541        9.3018094850       22.6310312840
  H         9.0755640775       10.6401752284       23.3495366428
  O         7.5297462179       13.5759432482       17.9556382354
  H         7.4398660636       13.2081428689       17.0676091909
  H         8.4883305275       13.1464635110       18.0964014635
  O         5.0969470313        8.9493306061       21.5643159479
  H         5.5337281855        8.2964953442       22.0993646796
  H         5.2968915651        8.6008470655       20.6599646853
  O         8.5253390601        7.4073553549        9.7601126708
  H         7.6760214244        6.8764049511        9.6220755962
  H         9.0861669408        7.3299793531        8.9849838712
  O         4.5758115920       15.8888643676       20.0958109109
  H         5.0223881366       15.0748808236       20.4718293829
  H         5.3533828201       16.4820123185       19.7917950195
  O        11.3624384556       10.0125933768       21.2366227198
  H        10.4854851326       10.3701254253       21.3477331466
  H        12.0594844310       10.6517600866       21.7342209160
  O         3.8047697949       15.1729530761       27.4412838083
  H         3.7882102736       15.4564201487       26.5195606418
  H         4.7087722242       14.8845092620       27.6682375870
  O         5.3259412508        6.9175794227       25.2322466538
  H         5.0131009662        7.8970375677       25.2782255706
  H         5.8062248984        6.7555274012       26.1220662894
  O        13.0217318151       11.9924774591       22.3512946140
  H        13.8090911884       12.0130787119       21.8074303582
  H        12.5712958767       12.8385802707       22.3092743601
  O         7.7577601375        6.4532192285       19.1754619598
  H         8.1518911766        6.3963201626       18.2999981991
  H         8.1365591849        5.6433423397       19.5651648876
  O         1.4290036953        8.7138856273        5.4705114482
  H         1.2621226700        8.9725145506        4.5071726441
  H         2.1490840351        9.3035777640        5.8365672775
  O        10.5139182651       17.4135269014       27.8337846976
  H        11.3275640793       17.3659861928       27.1825914135
  H        10.2875562006       16.4441678672       27.8120180772
  O        10.8749575006        5.9552022451       28.0975616431
  H        11.5301575886        5.4466703646       27.5239768897
  H        10.9079793996        5.4634226122       28.9587978169
  O        12.7814769036       14.1956572151        8.9369990729
  H        12.5214684886       14.4488612543        8.0120984553
  H        13.6027951522       13.6654844359        8.8224698199
  O        11.0762969994       17.2029604162       17.1476856759
  H        11.7446116168       17.2402033970       16.3445442222
  H        11.6484990342       16.6291922357       17.8358719948
  O         4.1447531013       18.7491117138       24.9812420033
  H         4.4145374127       19.1107354594       24.0775103459
  H         3.1865958463       19.0287341679       25.0839777697
  O         0.4722398043       12.2547390129       20.5929284960
  H         1.4245186168       12.0216771491       20.6888220704
  H         0.0545977944       11.6354857873       19.8746320586
  O         6.3652148061       18.7500027541       10.8295721391
  H         6.8161007255       18.2044621651       11.5665364145
  H         6.1562664764       18.1336904167       10.1041906796
  O         2.9496386572       12.5836607279       23.9134911427
  H         2.7581159782       11.8124761893       23.2793284667
  H         2.7301681589       13.5338676195       23.4917546915
  O        12.5769789630       17.0084244953       26.0350191146
  H        13.1679738093       16.4450903762       26.6080074713
  H        13.1271077616       17.5793682960       25.3843869469
  O        11.1538380536        9.4478957780       18.5072956931
  H        11.2242517115        9.4846852230       19.4928867116
  H        10.3971084170        9.9547429171       18.1629664864
  O         9.3734972352       12.1601027357       19.0096331361
  H         8.9910651363       12.4671200109       19.8704357825
  H        10.3542014004       12.3001136753       19.0027871638
  O         3.1111518069        6.2355388180       14.8163869004
  H         3.9325654945        5.8164278018       15.2996610609
  H         3.1954287757        7.2274419049       14.7856665348
  O         9.7775741945        5.1202429296       12.2093259973
  H        10.5624144234        4.6082063919       12.6129679442
  H        10.0007877639        6.0638080087       12.1389035923
  O        11.6312821303       14.0152537556       29.1173594481
  H        11.7429671403       13.0950047411       28.6607355236
  H        10.7779003642       14.3610790523       28.6998829777
  O         6.6300152634        7.4954774126       12.7557768750
  H         6.8149173951        6.5364979781       12.7050572632
  H         7.3083874915        8.0199596148       12.2662282591
  O         4.5482398905        0.5119199396       22.5505061385
  H         5.4030093468        0.5647402527       22.0735894787
  H         3.9463351701        0.0343750248       21.9987634163
  O        12.8982294955        7.9106791473       21.9538158273
  H        12.2398314474        8.6414935396       21.6272185984
  H        13.7082129429        8.4002662333       22.3051725494
  O         2.7591530311        5.6918315013       25.4690668752
  H         3.3569814568        6.3748403372       25.9456151486
  H         3.2439001193        4.8273819640       25.2620208866
  O        12.3877171661        9.1430790716       25.6734093254
  H        12.2375559602        8.8734332872       26.6082641138
  H        12.0735538294        8.4434152770       25.0665130167
  O        11.8373943815       15.7048968786       12.7150404150
  H        11.3707530807       16.3096820785       12.0788466837
  H        12.6975808293       15.5167109452       12.2402744089
  O         3.4703906325        8.8161886273       13.9029441063
  H         4.3453179271        9.2384304689       14.1579064244
  H         3.7132296663        8.4687561438       12.9781111152
  O         3.7102048325        2.3810978963       15.7310169135
  H         3.6571427501        2.1546202626       16.7008791735
  H         2.8750138242        2.0678866786       15.2943050402
  O         2.7111127912       18.1364591301        6.4737919580
  H         2.1046042198       18.7281396017        5.9518688945
  H         2.3266266274       17.6654488018        7.2768035073
  O         7.8846038053        9.3778280234       11.4028341193
  H         7.1798732470       10.0361917493       11.1234836085
  H         7.9404107872        8.7779012796       10.5838868286
  O        12.3878459122       10.1830754317        6.7601863136
  H        12.1677471264        9.3518018693        6.2697107831
  H        13.2257085056       10.0948682579        7.2925446974
  O         8.3595912879       18.5849340794       26.8236119485
  H         7.5394911046       18.5675865882       27.3625700355
  H         9.0719266310       18.1491267537       27.3482653055
  O         7.9561583337       13.6515643060       11.4423704058
  H         7.8298316004       13.8500613488       12.4190506770
  H         8.8076235427       12.8953482198       11.4262111265
  O         4.4049186756       18.2543221014        4.5719383561
  H         3.7776546612       17.9166424444        5.2220513600
  H         5.2964127613       17.9144616043        4.9878954477
  O         3.8584186362        2.5035294249        7.5600285509
  H         4.7366440103        2.5657859628        6.9835852187
  H         3.2767481763        2.6154838583        6.7757714561
  O         1.7346815330       12.1116920999       15.9427863530
  H         2.5705092702       12.3466270024       16.3961304486
  H         1.7350675347       11.0468347092       15.8862651958
  O        -0.4770990369        2.7010923937       28.1417785773
  H        -0.7626994756        1.8102092135       28.3255101917
  H        -0.1953687366        3.0993769298       28.9920321858
  O         7.5399307618        0.2545337788       14.6019642484
  H         6.8923355168       -0.5045430348       14.5345142183
  H         7.9772749264        0.2849082932       15.4645473592
  O        14.2090659383        7.9419126082       12.7480472960
  H        14.3054143709        7.0021930701       12.4731685820
  H        14.1130173542        7.9312841067       13.7520460222
  O         9.2768599158       14.8448209667        7.2467883928
  H        10.2420637224       14.6361220030        6.8593592812
  H         8.6151783270       14.2058865182        6.9078175150
  O         3.5431844583       16.1555988568       17.0502670853
  H         3.7779884913       15.8683421707       17.9094242094
  H         2.5477373805       16.3002160156       17.1662608512
  O         5.4781787991       17.7620359002        8.3871855729
  H         5.7251694696       17.4757711818        7.5289287771
  H         4.8167307322       18.5303968594        8.3251286647
  O        14.4366183215       18.8653093740        9.1366433389
  H        13.6080111586       18.2959058763        9.0901127426
  H        14.2511948850       19.5119469752        8.4170436674
  O         5.1585590865       15.5651757668        9.8712156060
  H         4.9863330362       16.3700359294        9.2199260679
  H         6.1549428034       15.6617774641        9.9104060727
  O        14.2225907551        3.9232261213        5.5254641276
  H        13.3953063490        3.5428535723        5.9245626241
  H        14.1678102180        4.1290396527        4.5272261166
  O        14.0500951434       14.2685039719       12.0729379426
  H        13.5151898567       13.3896680249       11.9194230307
  H        14.7716500960       14.4131233120       11.4278772922
  O         1.6895833624       14.6411116304       10.1352062733
  H         1.4419785147       13.8273487931        9.5694640031
  H         2.4313036212       14.4811727857       10.7948915678
  O        12.5958988787       17.5306181248       14.9281568189
  H        14.3870073653       15.0162131948       13.7504824515
  H        12.3529096896       18.0210153139       14.0666680407
  O         9.5519584235       14.8079125406       27.2622827448
  H         9.8049572404       14.2316146852       26.4944847204
  H         8.6024508999       14.7498665257       27.3689656160
  O        14.6948357553       15.0489701614       24.5854665670
  H        13.9257396015       15.1293649473       23.9521513634
  H        15.4876270665       14.9178728046       24.0486356069
  O         7.7927822117        8.5459574293       15.1360935287
  H         8.6403741472        8.8651716152       14.7688424604
  H         7.2077705803        8.1807185952       14.4322583294
  O         1.3794588611        9.4178038454       15.6642580654
  H         0.7555011396        8.6799332897       15.4098286436
  H         2.2620073342        9.2926008701       15.2113744842
  O        13.7023796800       10.7598371154       18.7860795017
  H        14.3920344966       10.0549822304       18.5105254137
  H        12.8937563939       10.2432853650       18.6416017222
  O        13.9868362800        7.6509842454       15.5074617998
  H        13.1386592926        7.7626115465       15.9781253121
  H        14.3832823388        6.8420231568       15.9947927891
  O        11.7867225304       14.7862873367        6.4438917595
  H        12.4168805443       14.1093518405        6.0125052381
  H        12.1852999604       15.6870451011        6.1602059153
  O        -0.8129588064        5.3359373656       12.0303669787
  H        -0.2839799676        4.4866867360       11.9479205178
  H        -1.5998406032        5.1840408577       12.5618216102
  O         8.9230705295       17.0899702285        5.6215474125
  H         9.0458769263       16.7911819367        4.7419562546
  H         9.1900066839       16.2864228819        6.1311540973
  O         6.7922293354        2.6241369559       23.2211759663
  H         7.4845136513        1.9599833154       22.9879664084
  H         6.1158199654        2.1300612579       23.7135113788
  O        13.3230131017        3.7366223777       24.5385495700
  H        12.7247022225        3.0156770905       24.4620776880
  H        13.0764427355        4.1171093798       25.4877408715
  O         4.5175306555        3.2239646132       11.7779118579
  H         5.1545182575        3.2933660966       12.6018505007
  H         4.4488785007        2.2563043387       11.5982191911
  O         6.3928357865       11.4640106937       21.6205959142
  H         7.3177959334       11.2219721923       21.7943783737
  H         6.0628903975       10.5268703843       21.6765569471
  O        -0.7380356027       15.7880425168       28.2716488305
  H         0.0661986340       15.2791537761       28.5462886787
  H        -1.3408369598       15.4782180303       29.0048256733
  O        12.3887121428       11.9777621386       27.6906535022
  H        12.5081992572       12.0398144796       26.6849472037
  H        11.6063849618       11.3570123128       27.7146432582
  O         7.9385970551        6.0140767767       16.5843968236
  H         8.2365699778        6.6845322264       15.9205107942
  H         8.5197839687        5.1918510759       16.4147223187
  O         8.3592904413       16.2994641251       17.3005811208
  H         9.2764698295       16.5569569998       17.1078473279
  H        11.3043974264       13.6305744665       15.6228393748
  O         8.6233724312        3.5300117051       29.0260027852
  H         8.2125753603        4.3336982670       28.6075060199
  H         9.5120993560        3.1364812672       28.5750024270
  O         8.3500140498        3.6607529632       25.4668572238
  H         7.8196674829        3.7802419371       24.6494015549
  H         9.1124880742        4.2990408137       25.1572365094
  O         4.2241610454       12.4243405874       12.3661522183
  H         3.2411550774       12.4823344580       12.5795630876
  H         4.3863521743       13.3770634446       12.5043417536
  O         5.9199333505        2.8711470685       14.3571292303
  H         5.0040291547        2.6811786196       14.8222586308
  H         6.4533619752        1.9963321712       14.4310645990
  O        12.2421345589       17.0724746483        9.5657868167
  H        12.4491275091       16.1171520654        9.4522007896
  H        11.3885949085       17.1342979288       10.0543244923
  O         9.1408251119        4.0331242399       20.1157495336
  H         8.4750831681        3.3714491045       19.7673319158
  H         9.8601470598        4.0982828692       19.3854498218
  O        10.4769510359        7.9767277039       11.9211818656
  H        11.2306778377        8.2772152990       11.4318116868
  H         9.7114322728        8.0649129910       11.3061764615
  O         9.0065385713        0.9140929074       22.6655370231
  H         8.9533154267        0.6480817832       23.6679541224
  H         9.6133907095        1.7268022104       22.6297250994
  O        12.2118008026       15.6335780311       19.0522249488
  H        10.6056711906       16.2096642698       19.8215689706
  H        13.1099767646       15.6301625888       19.4067625891
  O         9.8287055158       11.7797404564        5.6914372369
  H        10.6471037443       12.1033007067        5.1605620957
  H        10.1133100262       11.6833822129        6.5969306636
  O         1.2928395241        9.3611189630       18.3029280579
  H         1.4365569340        9.4956783629       17.3330616213
  H         1.9750702073        9.7846595098       18.8618955306
  O         2.8582701584        4.9881768220       21.2796224239
  H         2.6527063806        4.0588251513       21.6870304655
  H         3.8289011388        5.1313889870       21.2622977995
  O         9.0790755344       -0.2667940755       12.2207798953
  H         8.4595638369       -0.0674577620       12.9838642220
  H         9.1291129511        0.5034255735       11.5676426596
  O         9.9990288875       13.3934101120       25.2524660835
  H        10.2499102213       12.4242410954       25.3084217774
  H         9.0276736175       13.1710510658       25.2562424645
  O        13.3464695098        3.0657825141        8.6167741137
  H        12.7333466484        2.7826342722        9.3343771715
  H        13.2022224398        4.1257787620        8.6188391743
  O         5.1027467072       12.1811832584       27.9946661888
  H         4.8573076712       11.8859443691       28.9309646539
  H         5.9245799652       11.7278053885       28.0002204792
  O         0.5689034220        2.9776131693       12.0805265584
  H         0.8489367908        3.0731976832       11.0261317496
  H         1.3199973493        3.4892368048       12.5140106010
  O         0.6428927754       12.7521460815        8.1492383677
  H         0.9135881877       12.8180657686        7.1759532144
  H         0.5094633475       11.7092530155        8.1511882068
  O        -0.3195337956       13.6297490210       16.3938074016
  H         0.0970476177       14.3337402764       15.8190037034
  H         0.3690662627       12.9044826221       16.4320070950
  O         9.6800832119       16.4280963987       20.1342588389
  H         8.3169705733       15.3571961814       17.6218427018
  H         9.4028668227       15.6379918272       20.6224562678
  O         5.8383069487        6.7138722570        8.8184242570
  H         5.4346317348        5.8071805610        9.0103865362
  H         5.3351472154        7.4240852553        9.2188466157
  O         4.5177001702       12.0056209924       17.3717913687
  H         5.3868013723       12.3874994873       17.6126480099
  H         4.8646768825       11.1579878290       17.0786121576
  O         6.5460303721        6.8748542537       22.5209663216
  H         6.2077579331        6.7070808091       23.4566317773
  H         6.2692447336        6.1174855070       21.9875746908
  O         6.9783034406        5.4243797271       27.5216156378
  H         6.0294499940        5.1823462211       27.9429555150
  H         7.2463129011        4.6552692745       26.9862378801
  O        14.3035223562       10.0655434667        8.6320335258